num_offers = 25;
num_halls = 10;
start=[53,89,2,40,12,50,9,57,13,35,89,59,26,13,19,19,19,85,67,82,75,17,49,18,64];
end=[83,91,73,56,52,59,19,67,74,76,100,88,60,21,73,88,86,86,87,100,92,51,59,52,73];
price=[2182,71,4896,1577,3930,332,153,285,1895,1954,177,1905,1428,477,2067,2137,4385,117,539,640,1456,2298,607,1801,785];
requirement=[212,449,599,400,521,444,233,983,821,938,333,622,426,695,429,434,379,714,761,920,605,411,345,669,212];
capacity=[604,413,291,959,532,795,861,511,826,770];
